
%FILE DATA:	Soccer Computational Problem for MiniZinc Models	%
%AUTHOR:	Jack Wall	%
%CONTACT:  	116397063@umail.ucc.ie			%
%LAST UPDATE:	03/16/2020, 15:01:12						%
%DESCRIPTION: 	172 games played with 38 games left				%


n=15; %number of teams

%Games to play
games=[|14,11|3,5|2,6|14,15|11,10|4,9|11,12|6,1|8,14|14,7|12,10|13,5|3,13|14,3|5,9|13,8|12,9|8,12|8,15|9,4|4,7|12,11|5,14|8,13|6,12|3,15|15,9|12,2|14,10|15,5|2,15|7,15|14,2|6,10|8,4|11,9|9,5|8,11|];

%Initial points
iPoints=[31,26,30,36,33,37,29,30,28,40,32,22,34,38,18];

%POSITION CONSTRAINTS
% [|teamID, operator, position|...]
% operators index:
%  1 for =  operator
%  2 for >  operator
%  3 for >= operator
%  4 for <  operator
%  5 for <= operator
positionConstraints=[|14,5,1|10,1,2|];